&inputpp 
   prefix       = 'pwscf'
   outdir       = '../nscf/OUT/'
   seedname     = 'wan'
   write_mmn    = .true.
   write_amn    = .true.
   write_unk    = .false.
   !scdm_entanglement = 'erfc'
   !scdm_proj = .true.
   !scdm_mu = 20
   !scdm_sigma = 1.2
/
