iprint           = 2
num_dump_cycles  = 10
num_print_cycles = 10

begin unit_cell_cart
Angstrom
    3.84102000   0.000000   0.000000
    0.000000   3.84102000   0.000000
    0.000000   0.000000   3.84102000
end unit_cell_cart

begin atoms_frac
Sr       0.500000000   0.500000000   0.500000000
V        0.000000000   0.000000000   0.000000000
O        0.500000000   0.000000000   0.000000000
O        0.000000000   0.500000000   0.000000000
O        0.000000000   0.000000000   0.500000000
end atoms_frac

! system
num_bands = 3
exclude_bands : 1-20, 24-40
num_wann  = 3

! disentanglement
dis_win_min = 2.0
dis_win_max = 18.0
dis_froz_min = 2.0
dis_froz_max = 18.0
dis_num_iter = 10000
dis_conv_tol = 1.0E-14
!auto_projections =.true.
begin projections
V:dxz,dyz,dxy:x=1,0,0
end projections

! wannierisation
num_iter = 10000
conv_window = 5
conv_tol = 1e-12

! output
write_hr = true
write_u_matrices = true
write_xyz = true
translate_home_cell = false

!! To plot the WF interpolated bandstructure 
bands_plot = true
!bands_num_points = 100
!bands_plot_format = gnuplot
begin kpoint_path
 R 0.50  0.50  0.50  G 0.00  0.00  0.00
 G 0.00  0.00  0.00  X 0.50  0.00  0.00
 X 0.50  0.00  0.00  M 0.50  0.50  0.00
 M 0.50  0.50  0.00  G 0.00  0.00  0.00
end kpoint_path


!! To plot the WFs
!wannier_plot = false
!wannier_plot_supercell = 3

mp_grid 7 7 7
begin kpoints
0.00000000  0.00000000  0.00000000
0.00000000  0.00000000  0.14285714
0.00000000  0.00000000  0.28571429
0.00000000  0.00000000  0.42857143
0.00000000  0.00000000  0.57142857
0.00000000  0.00000000  0.71428571
0.00000000  0.00000000  0.85714286
0.00000000  0.14285714  0.00000000
0.00000000  0.14285714  0.14285714
0.00000000  0.14285714  0.28571429
0.00000000  0.14285714  0.42857143
0.00000000  0.14285714  0.57142857
0.00000000  0.14285714  0.71428571
0.00000000  0.14285714  0.85714286
0.00000000  0.28571429  0.00000000
0.00000000  0.28571429  0.14285714
0.00000000  0.28571429  0.28571429
0.00000000  0.28571429  0.42857143
0.00000000  0.28571429  0.57142857
0.00000000  0.28571429  0.71428571
0.00000000  0.28571429  0.85714286
0.00000000  0.42857143  0.00000000
0.00000000  0.42857143  0.14285714
0.00000000  0.42857143  0.28571429
0.00000000  0.42857143  0.42857143
0.00000000  0.42857143  0.57142857
0.00000000  0.42857143  0.71428571
0.00000000  0.42857143  0.85714286
0.00000000  0.57142857  0.00000000
0.00000000  0.57142857  0.14285714
0.00000000  0.57142857  0.28571429
0.00000000  0.57142857  0.42857143
0.00000000  0.57142857  0.57142857
0.00000000  0.57142857  0.71428571
0.00000000  0.57142857  0.85714286
0.00000000  0.71428571  0.00000000
0.00000000  0.71428571  0.14285714
0.00000000  0.71428571  0.28571429
0.00000000  0.71428571  0.42857143
0.00000000  0.71428571  0.57142857
0.00000000  0.71428571  0.71428571
0.00000000  0.71428571  0.85714286
0.00000000  0.85714286  0.00000000
0.00000000  0.85714286  0.14285714
0.00000000  0.85714286  0.28571429
0.00000000  0.85714286  0.42857143
0.00000000  0.85714286  0.57142857
0.00000000  0.85714286  0.71428571
0.00000000  0.85714286  0.85714286
0.14285714  0.00000000  0.00000000
0.14285714  0.00000000  0.14285714
0.14285714  0.00000000  0.28571429
0.14285714  0.00000000  0.42857143
0.14285714  0.00000000  0.57142857
0.14285714  0.00000000  0.71428571
0.14285714  0.00000000  0.85714286
0.14285714  0.14285714  0.00000000
0.14285714  0.14285714  0.14285714
0.14285714  0.14285714  0.28571429
0.14285714  0.14285714  0.42857143
0.14285714  0.14285714  0.57142857
0.14285714  0.14285714  0.71428571
0.14285714  0.14285714  0.85714286
0.14285714  0.28571429  0.00000000
0.14285714  0.28571429  0.14285714
0.14285714  0.28571429  0.28571429
0.14285714  0.28571429  0.42857143
0.14285714  0.28571429  0.57142857
0.14285714  0.28571429  0.71428571
0.14285714  0.28571429  0.85714286
0.14285714  0.42857143  0.00000000
0.14285714  0.42857143  0.14285714
0.14285714  0.42857143  0.28571429
0.14285714  0.42857143  0.42857143
0.14285714  0.42857143  0.57142857
0.14285714  0.42857143  0.71428571
0.14285714  0.42857143  0.85714286
0.14285714  0.57142857  0.00000000
0.14285714  0.57142857  0.14285714
0.14285714  0.57142857  0.28571429
0.14285714  0.57142857  0.42857143
0.14285714  0.57142857  0.57142857
0.14285714  0.57142857  0.71428571
0.14285714  0.57142857  0.85714286
0.14285714  0.71428571  0.00000000
0.14285714  0.71428571  0.14285714
0.14285714  0.71428571  0.28571429
0.14285714  0.71428571  0.42857143
0.14285714  0.71428571  0.57142857
0.14285714  0.71428571  0.71428571
0.14285714  0.71428571  0.85714286
0.14285714  0.85714286  0.00000000
0.14285714  0.85714286  0.14285714
0.14285714  0.85714286  0.28571429
0.14285714  0.85714286  0.42857143
0.14285714  0.85714286  0.57142857
0.14285714  0.85714286  0.71428571
0.14285714  0.85714286  0.85714286
0.28571429  0.00000000  0.00000000
0.28571429  0.00000000  0.14285714
0.28571429  0.00000000  0.28571429
0.28571429  0.00000000  0.42857143
0.28571429  0.00000000  0.57142857
0.28571429  0.00000000  0.71428571
0.28571429  0.00000000  0.85714286
0.28571429  0.14285714  0.00000000
0.28571429  0.14285714  0.14285714
0.28571429  0.14285714  0.28571429
0.28571429  0.14285714  0.42857143
0.28571429  0.14285714  0.57142857
0.28571429  0.14285714  0.71428571
0.28571429  0.14285714  0.85714286
0.28571429  0.28571429  0.00000000
0.28571429  0.28571429  0.14285714
0.28571429  0.28571429  0.28571429
0.28571429  0.28571429  0.42857143
0.28571429  0.28571429  0.57142857
0.28571429  0.28571429  0.71428571
0.28571429  0.28571429  0.85714286
0.28571429  0.42857143  0.00000000
0.28571429  0.42857143  0.14285714
0.28571429  0.42857143  0.28571429
0.28571429  0.42857143  0.42857143
0.28571429  0.42857143  0.57142857
0.28571429  0.42857143  0.71428571
0.28571429  0.42857143  0.85714286
0.28571429  0.57142857  0.00000000
0.28571429  0.57142857  0.14285714
0.28571429  0.57142857  0.28571429
0.28571429  0.57142857  0.42857143
0.28571429  0.57142857  0.57142857
0.28571429  0.57142857  0.71428571
0.28571429  0.57142857  0.85714286
0.28571429  0.71428571  0.00000000
0.28571429  0.71428571  0.14285714
0.28571429  0.71428571  0.28571429
0.28571429  0.71428571  0.42857143
0.28571429  0.71428571  0.57142857
0.28571429  0.71428571  0.71428571
0.28571429  0.71428571  0.85714286
0.28571429  0.85714286  0.00000000
0.28571429  0.85714286  0.14285714
0.28571429  0.85714286  0.28571429
0.28571429  0.85714286  0.42857143
0.28571429  0.85714286  0.57142857
0.28571429  0.85714286  0.71428571
0.28571429  0.85714286  0.85714286
0.42857143  0.00000000  0.00000000
0.42857143  0.00000000  0.14285714
0.42857143  0.00000000  0.28571429
0.42857143  0.00000000  0.42857143
0.42857143  0.00000000  0.57142857
0.42857143  0.00000000  0.71428571
0.42857143  0.00000000  0.85714286
0.42857143  0.14285714  0.00000000
0.42857143  0.14285714  0.14285714
0.42857143  0.14285714  0.28571429
0.42857143  0.14285714  0.42857143
0.42857143  0.14285714  0.57142857
0.42857143  0.14285714  0.71428571
0.42857143  0.14285714  0.85714286
0.42857143  0.28571429  0.00000000
0.42857143  0.28571429  0.14285714
0.42857143  0.28571429  0.28571429
0.42857143  0.28571429  0.42857143
0.42857143  0.28571429  0.57142857
0.42857143  0.28571429  0.71428571
0.42857143  0.28571429  0.85714286
0.42857143  0.42857143  0.00000000
0.42857143  0.42857143  0.14285714
0.42857143  0.42857143  0.28571429
0.42857143  0.42857143  0.42857143
0.42857143  0.42857143  0.57142857
0.42857143  0.42857143  0.71428571
0.42857143  0.42857143  0.85714286
0.42857143  0.57142857  0.00000000
0.42857143  0.57142857  0.14285714
0.42857143  0.57142857  0.28571429
0.42857143  0.57142857  0.42857143
0.42857143  0.57142857  0.57142857
0.42857143  0.57142857  0.71428571
0.42857143  0.57142857  0.85714286
0.42857143  0.71428571  0.00000000
0.42857143  0.71428571  0.14285714
0.42857143  0.71428571  0.28571429
0.42857143  0.71428571  0.42857143
0.42857143  0.71428571  0.57142857
0.42857143  0.71428571  0.71428571
0.42857143  0.71428571  0.85714286
0.42857143  0.85714286  0.00000000
0.42857143  0.85714286  0.14285714
0.42857143  0.85714286  0.28571429
0.42857143  0.85714286  0.42857143
0.42857143  0.85714286  0.57142857
0.42857143  0.85714286  0.71428571
0.42857143  0.85714286  0.85714286
0.57142857  0.00000000  0.00000000
0.57142857  0.00000000  0.14285714
0.57142857  0.00000000  0.28571429
0.57142857  0.00000000  0.42857143
0.57142857  0.00000000  0.57142857
0.57142857  0.00000000  0.71428571
0.57142857  0.00000000  0.85714286
0.57142857  0.14285714  0.00000000
0.57142857  0.14285714  0.14285714
0.57142857  0.14285714  0.28571429
0.57142857  0.14285714  0.42857143
0.57142857  0.14285714  0.57142857
0.57142857  0.14285714  0.71428571
0.57142857  0.14285714  0.85714286
0.57142857  0.28571429  0.00000000
0.57142857  0.28571429  0.14285714
0.57142857  0.28571429  0.28571429
0.57142857  0.28571429  0.42857143
0.57142857  0.28571429  0.57142857
0.57142857  0.28571429  0.71428571
0.57142857  0.28571429  0.85714286
0.57142857  0.42857143  0.00000000
0.57142857  0.42857143  0.14285714
0.57142857  0.42857143  0.28571429
0.57142857  0.42857143  0.42857143
0.57142857  0.42857143  0.57142857
0.57142857  0.42857143  0.71428571
0.57142857  0.42857143  0.85714286
0.57142857  0.57142857  0.00000000
0.57142857  0.57142857  0.14285714
0.57142857  0.57142857  0.28571429
0.57142857  0.57142857  0.42857143
0.57142857  0.57142857  0.57142857
0.57142857  0.57142857  0.71428571
0.57142857  0.57142857  0.85714286
0.57142857  0.71428571  0.00000000
0.57142857  0.71428571  0.14285714
0.57142857  0.71428571  0.28571429
0.57142857  0.71428571  0.42857143
0.57142857  0.71428571  0.57142857
0.57142857  0.71428571  0.71428571
0.57142857  0.71428571  0.85714286
0.57142857  0.85714286  0.00000000
0.57142857  0.85714286  0.14285714
0.57142857  0.85714286  0.28571429
0.57142857  0.85714286  0.42857143
0.57142857  0.85714286  0.57142857
0.57142857  0.85714286  0.71428571
0.57142857  0.85714286  0.85714286
0.71428571  0.00000000  0.00000000
0.71428571  0.00000000  0.14285714
0.71428571  0.00000000  0.28571429
0.71428571  0.00000000  0.42857143
0.71428571  0.00000000  0.57142857
0.71428571  0.00000000  0.71428571
0.71428571  0.00000000  0.85714286
0.71428571  0.14285714  0.00000000
0.71428571  0.14285714  0.14285714
0.71428571  0.14285714  0.28571429
0.71428571  0.14285714  0.42857143
0.71428571  0.14285714  0.57142857
0.71428571  0.14285714  0.71428571
0.71428571  0.14285714  0.85714286
0.71428571  0.28571429  0.00000000
0.71428571  0.28571429  0.14285714
0.71428571  0.28571429  0.28571429
0.71428571  0.28571429  0.42857143
0.71428571  0.28571429  0.57142857
0.71428571  0.28571429  0.71428571
0.71428571  0.28571429  0.85714286
0.71428571  0.42857143  0.00000000
0.71428571  0.42857143  0.14285714
0.71428571  0.42857143  0.28571429
0.71428571  0.42857143  0.42857143
0.71428571  0.42857143  0.57142857
0.71428571  0.42857143  0.71428571
0.71428571  0.42857143  0.85714286
0.71428571  0.57142857  0.00000000
0.71428571  0.57142857  0.14285714
0.71428571  0.57142857  0.28571429
0.71428571  0.57142857  0.42857143
0.71428571  0.57142857  0.57142857
0.71428571  0.57142857  0.71428571
0.71428571  0.57142857  0.85714286
0.71428571  0.71428571  0.00000000
0.71428571  0.71428571  0.14285714
0.71428571  0.71428571  0.28571429
0.71428571  0.71428571  0.42857143
0.71428571  0.71428571  0.57142857
0.71428571  0.71428571  0.71428571
0.71428571  0.71428571  0.85714286
0.71428571  0.85714286  0.00000000
0.71428571  0.85714286  0.14285714
0.71428571  0.85714286  0.28571429
0.71428571  0.85714286  0.42857143
0.71428571  0.85714286  0.57142857
0.71428571  0.85714286  0.71428571
0.71428571  0.85714286  0.85714286
0.85714286  0.00000000  0.00000000
0.85714286  0.00000000  0.14285714
0.85714286  0.00000000  0.28571429
0.85714286  0.00000000  0.42857143
0.85714286  0.00000000  0.57142857
0.85714286  0.00000000  0.71428571
0.85714286  0.00000000  0.85714286
0.85714286  0.14285714  0.00000000
0.85714286  0.14285714  0.14285714
0.85714286  0.14285714  0.28571429
0.85714286  0.14285714  0.42857143
0.85714286  0.14285714  0.57142857
0.85714286  0.14285714  0.71428571
0.85714286  0.14285714  0.85714286
0.85714286  0.28571429  0.00000000
0.85714286  0.28571429  0.14285714
0.85714286  0.28571429  0.28571429
0.85714286  0.28571429  0.42857143
0.85714286  0.28571429  0.57142857
0.85714286  0.28571429  0.71428571
0.85714286  0.28571429  0.85714286
0.85714286  0.42857143  0.00000000
0.85714286  0.42857143  0.14285714
0.85714286  0.42857143  0.28571429
0.85714286  0.42857143  0.42857143
0.85714286  0.42857143  0.57142857
0.85714286  0.42857143  0.71428571
0.85714286  0.42857143  0.85714286
0.85714286  0.57142857  0.00000000
0.85714286  0.57142857  0.14285714
0.85714286  0.57142857  0.28571429
0.85714286  0.57142857  0.42857143
0.85714286  0.57142857  0.57142857
0.85714286  0.57142857  0.71428571
0.85714286  0.57142857  0.85714286
0.85714286  0.71428571  0.00000000
0.85714286  0.71428571  0.14285714
0.85714286  0.71428571  0.28571429
0.85714286  0.71428571  0.42857143
0.85714286  0.71428571  0.57142857
0.85714286  0.71428571  0.71428571
0.85714286  0.71428571  0.85714286
0.85714286  0.85714286  0.00000000
0.85714286  0.85714286  0.14285714
0.85714286  0.85714286  0.28571429
0.85714286  0.85714286  0.42857143
0.85714286  0.85714286  0.57142857
0.85714286  0.85714286  0.71428571
0.85714286  0.85714286  0.85714286
end kpoints
