&inputpp 
   prefix       = 'svo'
   outdir       = './OUT/'
   seedname     = 'svo_t2g'
   write_mmn    = .true.
   write_amn    = .true.
   write_unk    = .false.
   !scdm_entanglement = 'erfc'
   !scdm_proj = .true.
   !scdm_mu = 40
   !scdm_sigma = 1.2
/
