&control
  calculation      = 'nscf',
  outdir           = './OUT',
  prefix           = 'svo',
  pseudo_dir       = './pseudo',
  verbosity        = 'high'
/ 

&system
  ibrav            = 1,
  A                = 3.84102000,
  nat              = 5, 
  ntyp             = 3,
  ecutwfc          = 650,
  nbnd             = 40,
  occupations      = 'smearing',
  degauss          = 0.0015,
  smearing         = 'm-p',
  input_dft        = 'pbe',
  nosym            = .true.,
  noinv            = .true.
/

&electrons
  conv_thr         = 1e-2,
  mixing_beta      = 0.7, 
  diagonalization  = 'david',
  !diago_full_acc  = .true.,
  !startingwfc     = 'file'    
/

ATOMIC_SPECIES
  Sr   0.0  Sr_ONCV_PBE-1.2.upf
  V    0.0  V.ccECP.upf
  O    0.0  O.ccECP.upf

ATOMIC_POSITIONS {crystal}
  Sr 0.50 0.50 0.50
  V  0.00 0.00 0.00
  O  0.50 0.00 0.00
  O  0.00 0.50 0.00
  O  0.00 0.00 0.50

K_POINTS crystal
343
  0.00000000  0.00000000  0.00000000  2.915452e-03
  0.00000000  0.00000000  0.14285714  2.915452e-03
  0.00000000  0.00000000  0.28571429  2.915452e-03
  0.00000000  0.00000000  0.42857143  2.915452e-03
  0.00000000  0.00000000  0.57142857  2.915452e-03
  0.00000000  0.00000000  0.71428571  2.915452e-03
  0.00000000  0.00000000  0.85714286  2.915452e-03
  0.00000000  0.14285714  0.00000000  2.915452e-03
  0.00000000  0.14285714  0.14285714  2.915452e-03
  0.00000000  0.14285714  0.28571429  2.915452e-03
  0.00000000  0.14285714  0.42857143  2.915452e-03
  0.00000000  0.14285714  0.57142857  2.915452e-03
  0.00000000  0.14285714  0.71428571  2.915452e-03
  0.00000000  0.14285714  0.85714286  2.915452e-03
  0.00000000  0.28571429  0.00000000  2.915452e-03
  0.00000000  0.28571429  0.14285714  2.915452e-03
  0.00000000  0.28571429  0.28571429  2.915452e-03
  0.00000000  0.28571429  0.42857143  2.915452e-03
  0.00000000  0.28571429  0.57142857  2.915452e-03
  0.00000000  0.28571429  0.71428571  2.915452e-03
  0.00000000  0.28571429  0.85714286  2.915452e-03
  0.00000000  0.42857143  0.00000000  2.915452e-03
  0.00000000  0.42857143  0.14285714  2.915452e-03
  0.00000000  0.42857143  0.28571429  2.915452e-03
  0.00000000  0.42857143  0.42857143  2.915452e-03
  0.00000000  0.42857143  0.57142857  2.915452e-03
  0.00000000  0.42857143  0.71428571  2.915452e-03
  0.00000000  0.42857143  0.85714286  2.915452e-03
  0.00000000  0.57142857  0.00000000  2.915452e-03
  0.00000000  0.57142857  0.14285714  2.915452e-03
  0.00000000  0.57142857  0.28571429  2.915452e-03
  0.00000000  0.57142857  0.42857143  2.915452e-03
  0.00000000  0.57142857  0.57142857  2.915452e-03
  0.00000000  0.57142857  0.71428571  2.915452e-03
  0.00000000  0.57142857  0.85714286  2.915452e-03
  0.00000000  0.71428571  0.00000000  2.915452e-03
  0.00000000  0.71428571  0.14285714  2.915452e-03
  0.00000000  0.71428571  0.28571429  2.915452e-03
  0.00000000  0.71428571  0.42857143  2.915452e-03
  0.00000000  0.71428571  0.57142857  2.915452e-03
  0.00000000  0.71428571  0.71428571  2.915452e-03
  0.00000000  0.71428571  0.85714286  2.915452e-03
  0.00000000  0.85714286  0.00000000  2.915452e-03
  0.00000000  0.85714286  0.14285714  2.915452e-03
  0.00000000  0.85714286  0.28571429  2.915452e-03
  0.00000000  0.85714286  0.42857143  2.915452e-03
  0.00000000  0.85714286  0.57142857  2.915452e-03
  0.00000000  0.85714286  0.71428571  2.915452e-03
  0.00000000  0.85714286  0.85714286  2.915452e-03
  0.14285714  0.00000000  0.00000000  2.915452e-03
  0.14285714  0.00000000  0.14285714  2.915452e-03
  0.14285714  0.00000000  0.28571429  2.915452e-03
  0.14285714  0.00000000  0.42857143  2.915452e-03
  0.14285714  0.00000000  0.57142857  2.915452e-03
  0.14285714  0.00000000  0.71428571  2.915452e-03
  0.14285714  0.00000000  0.85714286  2.915452e-03
  0.14285714  0.14285714  0.00000000  2.915452e-03
  0.14285714  0.14285714  0.14285714  2.915452e-03
  0.14285714  0.14285714  0.28571429  2.915452e-03
  0.14285714  0.14285714  0.42857143  2.915452e-03
  0.14285714  0.14285714  0.57142857  2.915452e-03
  0.14285714  0.14285714  0.71428571  2.915452e-03
  0.14285714  0.14285714  0.85714286  2.915452e-03
  0.14285714  0.28571429  0.00000000  2.915452e-03
  0.14285714  0.28571429  0.14285714  2.915452e-03
  0.14285714  0.28571429  0.28571429  2.915452e-03
  0.14285714  0.28571429  0.42857143  2.915452e-03
  0.14285714  0.28571429  0.57142857  2.915452e-03
  0.14285714  0.28571429  0.71428571  2.915452e-03
  0.14285714  0.28571429  0.85714286  2.915452e-03
  0.14285714  0.42857143  0.00000000  2.915452e-03
  0.14285714  0.42857143  0.14285714  2.915452e-03
  0.14285714  0.42857143  0.28571429  2.915452e-03
  0.14285714  0.42857143  0.42857143  2.915452e-03
  0.14285714  0.42857143  0.57142857  2.915452e-03
  0.14285714  0.42857143  0.71428571  2.915452e-03
  0.14285714  0.42857143  0.85714286  2.915452e-03
  0.14285714  0.57142857  0.00000000  2.915452e-03
  0.14285714  0.57142857  0.14285714  2.915452e-03
  0.14285714  0.57142857  0.28571429  2.915452e-03
  0.14285714  0.57142857  0.42857143  2.915452e-03
  0.14285714  0.57142857  0.57142857  2.915452e-03
  0.14285714  0.57142857  0.71428571  2.915452e-03
  0.14285714  0.57142857  0.85714286  2.915452e-03
  0.14285714  0.71428571  0.00000000  2.915452e-03
  0.14285714  0.71428571  0.14285714  2.915452e-03
  0.14285714  0.71428571  0.28571429  2.915452e-03
  0.14285714  0.71428571  0.42857143  2.915452e-03
  0.14285714  0.71428571  0.57142857  2.915452e-03
  0.14285714  0.71428571  0.71428571  2.915452e-03
  0.14285714  0.71428571  0.85714286  2.915452e-03
  0.14285714  0.85714286  0.00000000  2.915452e-03
  0.14285714  0.85714286  0.14285714  2.915452e-03
  0.14285714  0.85714286  0.28571429  2.915452e-03
  0.14285714  0.85714286  0.42857143  2.915452e-03
  0.14285714  0.85714286  0.57142857  2.915452e-03
  0.14285714  0.85714286  0.71428571  2.915452e-03
  0.14285714  0.85714286  0.85714286  2.915452e-03
  0.28571429  0.00000000  0.00000000  2.915452e-03
  0.28571429  0.00000000  0.14285714  2.915452e-03
  0.28571429  0.00000000  0.28571429  2.915452e-03
  0.28571429  0.00000000  0.42857143  2.915452e-03
  0.28571429  0.00000000  0.57142857  2.915452e-03
  0.28571429  0.00000000  0.71428571  2.915452e-03
  0.28571429  0.00000000  0.85714286  2.915452e-03
  0.28571429  0.14285714  0.00000000  2.915452e-03
  0.28571429  0.14285714  0.14285714  2.915452e-03
  0.28571429  0.14285714  0.28571429  2.915452e-03
  0.28571429  0.14285714  0.42857143  2.915452e-03
  0.28571429  0.14285714  0.57142857  2.915452e-03
  0.28571429  0.14285714  0.71428571  2.915452e-03
  0.28571429  0.14285714  0.85714286  2.915452e-03
  0.28571429  0.28571429  0.00000000  2.915452e-03
  0.28571429  0.28571429  0.14285714  2.915452e-03
  0.28571429  0.28571429  0.28571429  2.915452e-03
  0.28571429  0.28571429  0.42857143  2.915452e-03
  0.28571429  0.28571429  0.57142857  2.915452e-03
  0.28571429  0.28571429  0.71428571  2.915452e-03
  0.28571429  0.28571429  0.85714286  2.915452e-03
  0.28571429  0.42857143  0.00000000  2.915452e-03
  0.28571429  0.42857143  0.14285714  2.915452e-03
  0.28571429  0.42857143  0.28571429  2.915452e-03
  0.28571429  0.42857143  0.42857143  2.915452e-03
  0.28571429  0.42857143  0.57142857  2.915452e-03
  0.28571429  0.42857143  0.71428571  2.915452e-03
  0.28571429  0.42857143  0.85714286  2.915452e-03
  0.28571429  0.57142857  0.00000000  2.915452e-03
  0.28571429  0.57142857  0.14285714  2.915452e-03
  0.28571429  0.57142857  0.28571429  2.915452e-03
  0.28571429  0.57142857  0.42857143  2.915452e-03
  0.28571429  0.57142857  0.57142857  2.915452e-03
  0.28571429  0.57142857  0.71428571  2.915452e-03
  0.28571429  0.57142857  0.85714286  2.915452e-03
  0.28571429  0.71428571  0.00000000  2.915452e-03
  0.28571429  0.71428571  0.14285714  2.915452e-03
  0.28571429  0.71428571  0.28571429  2.915452e-03
  0.28571429  0.71428571  0.42857143  2.915452e-03
  0.28571429  0.71428571  0.57142857  2.915452e-03
  0.28571429  0.71428571  0.71428571  2.915452e-03
  0.28571429  0.71428571  0.85714286  2.915452e-03
  0.28571429  0.85714286  0.00000000  2.915452e-03
  0.28571429  0.85714286  0.14285714  2.915452e-03
  0.28571429  0.85714286  0.28571429  2.915452e-03
  0.28571429  0.85714286  0.42857143  2.915452e-03
  0.28571429  0.85714286  0.57142857  2.915452e-03
  0.28571429  0.85714286  0.71428571  2.915452e-03
  0.28571429  0.85714286  0.85714286  2.915452e-03
  0.42857143  0.00000000  0.00000000  2.915452e-03
  0.42857143  0.00000000  0.14285714  2.915452e-03
  0.42857143  0.00000000  0.28571429  2.915452e-03
  0.42857143  0.00000000  0.42857143  2.915452e-03
  0.42857143  0.00000000  0.57142857  2.915452e-03
  0.42857143  0.00000000  0.71428571  2.915452e-03
  0.42857143  0.00000000  0.85714286  2.915452e-03
  0.42857143  0.14285714  0.00000000  2.915452e-03
  0.42857143  0.14285714  0.14285714  2.915452e-03
  0.42857143  0.14285714  0.28571429  2.915452e-03
  0.42857143  0.14285714  0.42857143  2.915452e-03
  0.42857143  0.14285714  0.57142857  2.915452e-03
  0.42857143  0.14285714  0.71428571  2.915452e-03
  0.42857143  0.14285714  0.85714286  2.915452e-03
  0.42857143  0.28571429  0.00000000  2.915452e-03
  0.42857143  0.28571429  0.14285714  2.915452e-03
  0.42857143  0.28571429  0.28571429  2.915452e-03
  0.42857143  0.28571429  0.42857143  2.915452e-03
  0.42857143  0.28571429  0.57142857  2.915452e-03
  0.42857143  0.28571429  0.71428571  2.915452e-03
  0.42857143  0.28571429  0.85714286  2.915452e-03
  0.42857143  0.42857143  0.00000000  2.915452e-03
  0.42857143  0.42857143  0.14285714  2.915452e-03
  0.42857143  0.42857143  0.28571429  2.915452e-03
  0.42857143  0.42857143  0.42857143  2.915452e-03
  0.42857143  0.42857143  0.57142857  2.915452e-03
  0.42857143  0.42857143  0.71428571  2.915452e-03
  0.42857143  0.42857143  0.85714286  2.915452e-03
  0.42857143  0.57142857  0.00000000  2.915452e-03
  0.42857143  0.57142857  0.14285714  2.915452e-03
  0.42857143  0.57142857  0.28571429  2.915452e-03
  0.42857143  0.57142857  0.42857143  2.915452e-03
  0.42857143  0.57142857  0.57142857  2.915452e-03
  0.42857143  0.57142857  0.71428571  2.915452e-03
  0.42857143  0.57142857  0.85714286  2.915452e-03
  0.42857143  0.71428571  0.00000000  2.915452e-03
  0.42857143  0.71428571  0.14285714  2.915452e-03
  0.42857143  0.71428571  0.28571429  2.915452e-03
  0.42857143  0.71428571  0.42857143  2.915452e-03
  0.42857143  0.71428571  0.57142857  2.915452e-03
  0.42857143  0.71428571  0.71428571  2.915452e-03
  0.42857143  0.71428571  0.85714286  2.915452e-03
  0.42857143  0.85714286  0.00000000  2.915452e-03
  0.42857143  0.85714286  0.14285714  2.915452e-03
  0.42857143  0.85714286  0.28571429  2.915452e-03
  0.42857143  0.85714286  0.42857143  2.915452e-03
  0.42857143  0.85714286  0.57142857  2.915452e-03
  0.42857143  0.85714286  0.71428571  2.915452e-03
  0.42857143  0.85714286  0.85714286  2.915452e-03
  0.57142857  0.00000000  0.00000000  2.915452e-03
  0.57142857  0.00000000  0.14285714  2.915452e-03
  0.57142857  0.00000000  0.28571429  2.915452e-03
  0.57142857  0.00000000  0.42857143  2.915452e-03
  0.57142857  0.00000000  0.57142857  2.915452e-03
  0.57142857  0.00000000  0.71428571  2.915452e-03
  0.57142857  0.00000000  0.85714286  2.915452e-03
  0.57142857  0.14285714  0.00000000  2.915452e-03
  0.57142857  0.14285714  0.14285714  2.915452e-03
  0.57142857  0.14285714  0.28571429  2.915452e-03
  0.57142857  0.14285714  0.42857143  2.915452e-03
  0.57142857  0.14285714  0.57142857  2.915452e-03
  0.57142857  0.14285714  0.71428571  2.915452e-03
  0.57142857  0.14285714  0.85714286  2.915452e-03
  0.57142857  0.28571429  0.00000000  2.915452e-03
  0.57142857  0.28571429  0.14285714  2.915452e-03
  0.57142857  0.28571429  0.28571429  2.915452e-03
  0.57142857  0.28571429  0.42857143  2.915452e-03
  0.57142857  0.28571429  0.57142857  2.915452e-03
  0.57142857  0.28571429  0.71428571  2.915452e-03
  0.57142857  0.28571429  0.85714286  2.915452e-03
  0.57142857  0.42857143  0.00000000  2.915452e-03
  0.57142857  0.42857143  0.14285714  2.915452e-03
  0.57142857  0.42857143  0.28571429  2.915452e-03
  0.57142857  0.42857143  0.42857143  2.915452e-03
  0.57142857  0.42857143  0.57142857  2.915452e-03
  0.57142857  0.42857143  0.71428571  2.915452e-03
  0.57142857  0.42857143  0.85714286  2.915452e-03
  0.57142857  0.57142857  0.00000000  2.915452e-03
  0.57142857  0.57142857  0.14285714  2.915452e-03
  0.57142857  0.57142857  0.28571429  2.915452e-03
  0.57142857  0.57142857  0.42857143  2.915452e-03
  0.57142857  0.57142857  0.57142857  2.915452e-03
  0.57142857  0.57142857  0.71428571  2.915452e-03
  0.57142857  0.57142857  0.85714286  2.915452e-03
  0.57142857  0.71428571  0.00000000  2.915452e-03
  0.57142857  0.71428571  0.14285714  2.915452e-03
  0.57142857  0.71428571  0.28571429  2.915452e-03
  0.57142857  0.71428571  0.42857143  2.915452e-03
  0.57142857  0.71428571  0.57142857  2.915452e-03
  0.57142857  0.71428571  0.71428571  2.915452e-03
  0.57142857  0.71428571  0.85714286  2.915452e-03
  0.57142857  0.85714286  0.00000000  2.915452e-03
  0.57142857  0.85714286  0.14285714  2.915452e-03
  0.57142857  0.85714286  0.28571429  2.915452e-03
  0.57142857  0.85714286  0.42857143  2.915452e-03
  0.57142857  0.85714286  0.57142857  2.915452e-03
  0.57142857  0.85714286  0.71428571  2.915452e-03
  0.57142857  0.85714286  0.85714286  2.915452e-03
  0.71428571  0.00000000  0.00000000  2.915452e-03
  0.71428571  0.00000000  0.14285714  2.915452e-03
  0.71428571  0.00000000  0.28571429  2.915452e-03
  0.71428571  0.00000000  0.42857143  2.915452e-03
  0.71428571  0.00000000  0.57142857  2.915452e-03
  0.71428571  0.00000000  0.71428571  2.915452e-03
  0.71428571  0.00000000  0.85714286  2.915452e-03
  0.71428571  0.14285714  0.00000000  2.915452e-03
  0.71428571  0.14285714  0.14285714  2.915452e-03
  0.71428571  0.14285714  0.28571429  2.915452e-03
  0.71428571  0.14285714  0.42857143  2.915452e-03
  0.71428571  0.14285714  0.57142857  2.915452e-03
  0.71428571  0.14285714  0.71428571  2.915452e-03
  0.71428571  0.14285714  0.85714286  2.915452e-03
  0.71428571  0.28571429  0.00000000  2.915452e-03
  0.71428571  0.28571429  0.14285714  2.915452e-03
  0.71428571  0.28571429  0.28571429  2.915452e-03
  0.71428571  0.28571429  0.42857143  2.915452e-03
  0.71428571  0.28571429  0.57142857  2.915452e-03
  0.71428571  0.28571429  0.71428571  2.915452e-03
  0.71428571  0.28571429  0.85714286  2.915452e-03
  0.71428571  0.42857143  0.00000000  2.915452e-03
  0.71428571  0.42857143  0.14285714  2.915452e-03
  0.71428571  0.42857143  0.28571429  2.915452e-03
  0.71428571  0.42857143  0.42857143  2.915452e-03
  0.71428571  0.42857143  0.57142857  2.915452e-03
  0.71428571  0.42857143  0.71428571  2.915452e-03
  0.71428571  0.42857143  0.85714286  2.915452e-03
  0.71428571  0.57142857  0.00000000  2.915452e-03
  0.71428571  0.57142857  0.14285714  2.915452e-03
  0.71428571  0.57142857  0.28571429  2.915452e-03
  0.71428571  0.57142857  0.42857143  2.915452e-03
  0.71428571  0.57142857  0.57142857  2.915452e-03
  0.71428571  0.57142857  0.71428571  2.915452e-03
  0.71428571  0.57142857  0.85714286  2.915452e-03
  0.71428571  0.71428571  0.00000000  2.915452e-03
  0.71428571  0.71428571  0.14285714  2.915452e-03
  0.71428571  0.71428571  0.28571429  2.915452e-03
  0.71428571  0.71428571  0.42857143  2.915452e-03
  0.71428571  0.71428571  0.57142857  2.915452e-03
  0.71428571  0.71428571  0.71428571  2.915452e-03
  0.71428571  0.71428571  0.85714286  2.915452e-03
  0.71428571  0.85714286  0.00000000  2.915452e-03
  0.71428571  0.85714286  0.14285714  2.915452e-03
  0.71428571  0.85714286  0.28571429  2.915452e-03
  0.71428571  0.85714286  0.42857143  2.915452e-03
  0.71428571  0.85714286  0.57142857  2.915452e-03
  0.71428571  0.85714286  0.71428571  2.915452e-03
  0.71428571  0.85714286  0.85714286  2.915452e-03
  0.85714286  0.00000000  0.00000000  2.915452e-03
  0.85714286  0.00000000  0.14285714  2.915452e-03
  0.85714286  0.00000000  0.28571429  2.915452e-03
  0.85714286  0.00000000  0.42857143  2.915452e-03
  0.85714286  0.00000000  0.57142857  2.915452e-03
  0.85714286  0.00000000  0.71428571  2.915452e-03
  0.85714286  0.00000000  0.85714286  2.915452e-03
  0.85714286  0.14285714  0.00000000  2.915452e-03
  0.85714286  0.14285714  0.14285714  2.915452e-03
  0.85714286  0.14285714  0.28571429  2.915452e-03
  0.85714286  0.14285714  0.42857143  2.915452e-03
  0.85714286  0.14285714  0.57142857  2.915452e-03
  0.85714286  0.14285714  0.71428571  2.915452e-03
  0.85714286  0.14285714  0.85714286  2.915452e-03
  0.85714286  0.28571429  0.00000000  2.915452e-03
  0.85714286  0.28571429  0.14285714  2.915452e-03
  0.85714286  0.28571429  0.28571429  2.915452e-03
  0.85714286  0.28571429  0.42857143  2.915452e-03
  0.85714286  0.28571429  0.57142857  2.915452e-03
  0.85714286  0.28571429  0.71428571  2.915452e-03
  0.85714286  0.28571429  0.85714286  2.915452e-03
  0.85714286  0.42857143  0.00000000  2.915452e-03
  0.85714286  0.42857143  0.14285714  2.915452e-03
  0.85714286  0.42857143  0.28571429  2.915452e-03
  0.85714286  0.42857143  0.42857143  2.915452e-03
  0.85714286  0.42857143  0.57142857  2.915452e-03
  0.85714286  0.42857143  0.71428571  2.915452e-03
  0.85714286  0.42857143  0.85714286  2.915452e-03
  0.85714286  0.57142857  0.00000000  2.915452e-03
  0.85714286  0.57142857  0.14285714  2.915452e-03
  0.85714286  0.57142857  0.28571429  2.915452e-03
  0.85714286  0.57142857  0.42857143  2.915452e-03
  0.85714286  0.57142857  0.57142857  2.915452e-03
  0.85714286  0.57142857  0.71428571  2.915452e-03
  0.85714286  0.57142857  0.85714286  2.915452e-03
  0.85714286  0.71428571  0.00000000  2.915452e-03
  0.85714286  0.71428571  0.14285714  2.915452e-03
  0.85714286  0.71428571  0.28571429  2.915452e-03
  0.85714286  0.71428571  0.42857143  2.915452e-03
  0.85714286  0.71428571  0.57142857  2.915452e-03
  0.85714286  0.71428571  0.71428571  2.915452e-03
  0.85714286  0.71428571  0.85714286  2.915452e-03
  0.85714286  0.85714286  0.00000000  2.915452e-03
  0.85714286  0.85714286  0.14285714  2.915452e-03
  0.85714286  0.85714286  0.28571429  2.915452e-03
  0.85714286  0.85714286  0.42857143  2.915452e-03
  0.85714286  0.85714286  0.57142857  2.915452e-03
  0.85714286  0.85714286  0.71428571  2.915452e-03
  0.85714286  0.85714286  0.85714286  2.915452e-03
