&inputpp

outdir = "./",
prefix = "pwscf",
filplot = "VSC",
plot_num = 1

/
