 &control
    calculation = 'scf',
    verbosity = 'high',
    outdir = 'OUT',
    prefix = 'pwscf',
    pseudo_dir = '/mnt/home/cyeh/PP/sg15_oncv_upf_2020-02-06/'
 /
 &system
    ibrav=2, A=4.083,
    nat=2, ntyp=2,
    nbnd=16,
    ecutwfc=100,
    occupations='smearing',
    degauss=0.0015,
    smearing='m-p',
    nosym=.true.,
    noinv=.true.,
    input_dft='pbe'
 /
 &electrons
    conv_thr=1e-10,
 /
ATOMIC_SPECIES
 Li   0.0  Li_ONCV_PBE-1.2.upf
 H    0.0  H_ONCV_PBE-1.2.upf
ATOMIC_POSITIONS {crystal}
 Li 0.00 0.00 0.00
 H  0.50 0.50 0.50
K_POINTS {automatic}
 2 2 2 0 0 0
