iprint           = 2
num_dump_cycles  = 10
num_print_cycles = 10

begin unit_cell_cart
Angstrom
   -2.0415  0.000   2.0415
    0.000   2.0415  2.0415
   -2.0415  2.0415   0.000
end unit_cell_cart

begin atoms_frac
Li      0.000000000   0.000000000   0.000000000
H       0.500000000   0.500000000   0.500000000
end atoms_frac

! system
num_bands = 2
exclude_bands : 3-16 
num_wann  = 2

! disentanglement
!dis_win_min = 
!dis_win_max = 60.0
!dis_froz_min =
!! set dis_froz_max to chemical potential
!dis_froz_max = 20
dis_num_iter = 10000
!auto_projections =.true.
begin projections
f=0.0, 0.0, 0.0000000000:s
f=0.5, 0.5, 0.500000000:s
end projections

! wannierisation
num_iter = 10000
conv_window = 5
conv_tol = 1e-10
write_xyz = true
guiding_centres = .true.
write_hr = .true.
write_u_matrices = .true.

!! To plot the WF interpolated bandstructure 
bands_plot = true
!bands_num_points = 100
!bands_plot_format = gnuplot
begin kpoint_path
 W 0.50  0.25  0.75  L 0.50  0.50  0.50
 L 0.50  0.50  0.50  G 0.00  0.00  0.00
 G 0.00  0.00  0.00  X 0.50  0.00  0.50
 X 0.50  0.00  0.50  W 0.50  0.25  0.75 
 W 0.50  0.25  0.75  K 0.375 0.375 0.75
end kpoint_path

!! To plot the WFs
!wannier_plot = false
!wannier_plot_supercell = 3

mp_grid 2 2 2
begin kpoints
0.00000000  0.00000000  0.00000000
0.00000000  0.00000000  0.50000000
0.00000000  0.50000000  0.00000000
0.00000000  0.50000000  0.50000000
0.50000000  0.00000000  0.00000000
0.50000000  0.00000000  0.50000000
0.50000000  0.50000000  0.00000000
0.50000000  0.50000000  0.50000000
end kpoints
