&inputpp

outdir = "./",
prefix = "pwscf",
filplot = "VLTOT",
plot_num = 2

/
