&CONTROL
   verbosity        = 'high'
   outdir           = './out'
   prefix           = 'sto'
   pseudo_dir       = '../../pseudo/'
/
&SYSTEM
   ibrav            = 0
   nat              = 5
   ntyp             = 3
   ecutwfc          = 90.0
   occupations      = 'smearing'
   degauss          = 0.0015
   smearing         = 'm-p'
   input_dft        = 'pbe'
/
&ELECTRONS
   conv_thr         = 1e-10
   mixing_beta      = 0.7
   diagonalization  = 'david'
/
&IONS
/
&CELL
/
&FCP
/
&RISM
/
ATOMIC_SPECIES
Sr 87.62 Sr_ONCV_PBE-1.2.upf
Ti 47.867 Ti_ONCV_PBE-1.2.upf
O 15.999 O_ONCV_PBE-1.2.upf

K_POINTS automatic
12 12 12  0 0 0

CELL_PARAMETERS angstrom
3.91270131000000 0.00000000000000 0.00000000000000
0.00000000000000 3.91270131000000 0.00000000000000
0.00000000000000 0.00000000000000 3.91270131000000

ATOMIC_POSITIONS angstrom
Sr 0.0000000000 0.0000000000 0.0000000000  
Ti 1.9563506550 1.9563506550 1.9563506550  
O 0.0000000000 1.9563506550 1.9563506550  
O 1.9563506550 0.0000000000 1.9563506550  
O 1.9563506550 1.9563506550 0.0000000000  

